datasets/2-dimensional/CL_01_25_03.vbp
2
1000 1000 
25
195 278 30
269 139 72
110 353 4
388 285 88
367 303 54
314 272 64
297 160 90
182 334 26
236 359 94
225 203 28
315 232 72
175 313 49
169 113 54
166 298 19
131 135 28
132 191 61
334 232 84
105 125 23
111 136 67
220 333 53
396 281 54
109 249 16
123 301 9
105 306 54
123 229 77
