datasets/2-dimensional-benchmark/CL_01_25_03.txt
1000 1000 
0 30 195 278 
1 72 269 139 
2 4 110 353 
3 88 388 285 
4 54 367 303 
5 64 314 272 
6 90 297 160 
7 26 182 334 
8 94 236 359 
9 28 225 203 
10 72 315 232 
11 49 175 313 
12 54 169 113 
13 19 166 298 
14 28 131 135 
15 61 132 191 
16 84 334 232 
17 23 105 125 
18 67 111 136 
19 53 220 333 
20 54 396 281 
21 16 109 249 
22 9 123 301 
23 54 105 306 
24 77 123 229 
